10J3M/DAT/10J3MNLA-17.dat
10 3
26.3081 692.1161
32.7428 1072.091
16.7984 282.1862
14.1291 199.6315
32.9668 1086.8099
29.8278 889.6977
25.6323 657.0148
35.0617 1229.3228
43.4169 1885.0272
18.8038 353.5829
2782.4934