10J3M/SOL/10J3MNLA-17.sol
solution status: optimal solution found
objective value:                              91.8959
x#1#1                               0.230430382997038 	(obj:0)
x#1#2                               0.769569617002962 	(obj:0)
x#2#1                                               1 	(obj:0)
x#3#2                                               1 	(obj:0)
x#4#2                                               1 	(obj:0)
x#5#3                                               1 	(obj:0)
x#6#1                                               1 	(obj:0)
x#7#3                                               1 	(obj:0)
x#8#1                                0.27624403047076 	(obj:0)
x#8#3                               0.723755969529239 	(obj:0)
x#9#1                              0.0620591161753972 	(obj:0)
x#9#2                               0.937940883824603 	(obj:0)
x#10#1                               0.57877209270697 	(obj:0)
x#10#3                               0.42122790729303 	(obj:0)
z                                             91.8959 	(obj:1)
